(set-logic QF_NIA)
(set-info :source |
     Constraint systems stating that a matrix interpretation is
     compatible with a rewriting system (weakly compatible with
     all rules, strictly compatible with at least one).

     Contributed by Johannes Waldmann at HTKW Leipzig.
   |)
(set-info :smt-lib-version 2.0)
(set-info :category "crafted")
(set-info :status sat)
(declare-fun n0 () Int)
(assert (>= n0 0))
(declare-fun n1 () Int)
(assert (>= n1 0))
(declare-fun n2 () Int)
(assert (>= n2 0))
(declare-fun n3 () Int)
(assert (>= n3 0))
(declare-fun n4 () Int)
(assert (>= n4 0))
(declare-fun n5 () Int)
(assert (>= n5 0))
(assert (>= n2 1))
(declare-fun n6 () Int)
(assert (>= n6 0))
(declare-fun n7 () Int)
(assert (>= n7 0))
(declare-fun n8 () Int)
(assert (>= n8 0))
(declare-fun n9 () Int)
(assert (>= n9 0))
(declare-fun n10 () Int)
(assert (>= n10 0))
(declare-fun n11 () Int)
(assert (>= n11 0))
(assert (>= n8 1))
(declare-fun n12 () Int)
(assert (>= n12 0))
(declare-fun n13 () Int)
(assert (>= n13 0))
(declare-fun n14 () Int)
(assert (>= n14 0))
(declare-fun n15 () Int)
(assert (>= n15 0))
(declare-fun n16 () Int)
(assert (>= n16 0))
(declare-fun n17 () Int)
(assert (>= n17 0))
(assert (>= n14 1))
(declare-fun n18 () Int)
(assert (>= n18 0))
(declare-fun n19 () Int)
(assert (>= n19 0))
(declare-fun n20 () Int)
(assert (>= n20 0))
(declare-fun n21 () Int)
(assert (>= n21 0))
(declare-fun n22 () Int)
(assert (>= n22 0))
(declare-fun n23 () Int)
(assert (>= n23 0))
(assert (>= n20 1))
(declare-fun n24 () Int)
(assert (= n24 (* n14 n6)))
(declare-fun n25 () Int)
(assert (= n25 (* n15 n7)))
(declare-fun n26 () Int)
(assert (= n26 (* n16 n6)))
(declare-fun n27 () Int)
(assert (= n27 (* n17 n7)))
(declare-fun n28 () Int)
(assert (= n28 (+ n24 n25)))
(declare-fun n29 () Int)
(assert (= n29 (+ n26 n27)))
(declare-fun n30 () Int)
(assert (= n30 (+ n12 n28)))
(declare-fun n31 () Int)
(assert (= n31 (+ n13 n29)))
(declare-fun n32 () Int)
(assert (= n32 (* n14 n8)))
(declare-fun n33 () Int)
(assert (= n33 (* n15 n10)))
(declare-fun n34 () Int)
(assert (= n34 (* n14 n9)))
(declare-fun n35 () Int)
(assert (= n35 (* n15 n11)))
(declare-fun n36 () Int)
(assert (= n36 (* n16 n8)))
(declare-fun n37 () Int)
(assert (= n37 (* n17 n10)))
(declare-fun n38 () Int)
(assert (= n38 (* n16 n9)))
(declare-fun n39 () Int)
(assert (= n39 (* n17 n11)))
(declare-fun n40 () Int)
(assert (= n40 (+ n32 n33)))
(declare-fun n41 () Int)
(assert (= n41 (+ n34 n35)))
(declare-fun n42 () Int)
(assert (= n42 (+ n36 n37)))
(declare-fun n43 () Int)
(assert (= n43 (+ n38 n39)))
(declare-fun n44 () Int)
(assert (= n44 (* n2 n30)))
(declare-fun n45 () Int)
(assert (= n45 (* n3 n31)))
(declare-fun n46 () Int)
(assert (= n46 (* n4 n30)))
(declare-fun n47 () Int)
(assert (= n47 (* n5 n31)))
(declare-fun n48 () Int)
(assert (= n48 (+ n44 n45)))
(declare-fun n49 () Int)
(assert (= n49 (+ n46 n47)))
(declare-fun n50 () Int)
(assert (= n50 (+ n0 n48)))
(declare-fun n51 () Int)
(assert (= n51 (+ n1 n49)))
(declare-fun n52 () Int)
(assert (= n52 (* n2 n40)))
(declare-fun n53 () Int)
(assert (= n53 (* n3 n42)))
(declare-fun n54 () Int)
(assert (= n54 (* n2 n41)))
(declare-fun n55 () Int)
(assert (= n55 (* n3 n43)))
(declare-fun n56 () Int)
(assert (= n56 (* n4 n40)))
(declare-fun n57 () Int)
(assert (= n57 (* n5 n42)))
(declare-fun n58 () Int)
(assert (= n58 (* n4 n41)))
(declare-fun n59 () Int)
(assert (= n59 (* n5 n43)))
(declare-fun n60 () Int)
(assert (= n60 (+ n52 n53)))
(declare-fun n61 () Int)
(assert (= n61 (+ n54 n55)))
(declare-fun n62 () Int)
(assert (= n62 (+ n56 n57)))
(declare-fun n63 () Int)
(assert (= n63 (+ n58 n59)))
(declare-fun n64 () Int)
(assert (= n64 (* n8 n0)))
(declare-fun n65 () Int)
(assert (= n65 (* n9 n1)))
(declare-fun n66 () Int)
(assert (= n66 (* n10 n0)))
(declare-fun n67 () Int)
(assert (= n67 (* n11 n1)))
(declare-fun n68 () Int)
(assert (= n68 (+ n64 n65)))
(declare-fun n69 () Int)
(assert (= n69 (+ n66 n67)))
(declare-fun n70 () Int)
(assert (= n70 (+ n6 n68)))
(declare-fun n71 () Int)
(assert (= n71 (+ n7 n69)))
(declare-fun n72 () Int)
(assert (= n72 (* n8 n2)))
(declare-fun n73 () Int)
(assert (= n73 (* n9 n4)))
(declare-fun n74 () Int)
(assert (= n74 (* n8 n3)))
(declare-fun n75 () Int)
(assert (= n75 (* n9 n5)))
(declare-fun n76 () Int)
(assert (= n76 (* n10 n2)))
(declare-fun n77 () Int)
(assert (= n77 (* n11 n4)))
(declare-fun n78 () Int)
(assert (= n78 (* n10 n3)))
(declare-fun n79 () Int)
(assert (= n79 (* n11 n5)))
(declare-fun n80 () Int)
(assert (= n80 (+ n72 n73)))
(declare-fun n81 () Int)
(assert (= n81 (+ n74 n75)))
(declare-fun n82 () Int)
(assert (= n82 (+ n76 n77)))
(declare-fun n83 () Int)
(assert (= n83 (+ n78 n79)))
(declare-fun n84 () Int)
(assert (= n84 (* n40 n12)))
(declare-fun n85 () Int)
(assert (= n85 (* n41 n13)))
(declare-fun n86 () Int)
(assert (= n86 (* n42 n12)))
(declare-fun n87 () Int)
(assert (= n87 (* n43 n13)))
(declare-fun n88 () Int)
(assert (= n88 (+ n84 n85)))
(declare-fun n89 () Int)
(assert (= n89 (+ n86 n87)))
(declare-fun n90 () Int)
(assert (= n90 (+ n30 n88)))
(declare-fun n91 () Int)
(assert (= n91 (+ n31 n89)))
(declare-fun n92 () Int)
(assert (= n92 (* n40 n14)))
(declare-fun n93 () Int)
(assert (= n93 (* n41 n16)))
(declare-fun n94 () Int)
(assert (= n94 (* n40 n15)))
(declare-fun n95 () Int)
(assert (= n95 (* n41 n17)))
(declare-fun n96 () Int)
(assert (= n96 (* n42 n14)))
(declare-fun n97 () Int)
(assert (= n97 (* n43 n16)))
(declare-fun n98 () Int)
(assert (= n98 (* n42 n15)))
(declare-fun n99 () Int)
(assert (= n99 (* n43 n17)))
(declare-fun n100 () Int)
(assert (= n100 (+ n92 n93)))
(declare-fun n101 () Int)
(assert (= n101 (+ n94 n95)))
(declare-fun n102 () Int)
(assert (= n102 (+ n96 n97)))
(declare-fun n103 () Int)
(assert (= n103 (+ n98 n99)))
(declare-fun n104 () Int)
(assert (= n104 (* n60 n12)))
(declare-fun n105 () Int)
(assert (= n105 (* n61 n13)))
(declare-fun n106 () Int)
(assert (= n106 (* n62 n12)))
(declare-fun n107 () Int)
(assert (= n107 (* n63 n13)))
(declare-fun n108 () Int)
(assert (= n108 (+ n104 n105)))
(declare-fun n109 () Int)
(assert (= n109 (+ n106 n107)))
(declare-fun n110 () Int)
(assert (= n110 (+ n50 n108)))
(declare-fun n111 () Int)
(assert (= n111 (+ n51 n109)))
(declare-fun n112 () Int)
(assert (= n112 (* n60 n14)))
(declare-fun n113 () Int)
(assert (= n113 (* n61 n16)))
(declare-fun n114 () Int)
(assert (= n114 (* n60 n15)))
(declare-fun n115 () Int)
(assert (= n115 (* n61 n17)))
(declare-fun n116 () Int)
(assert (= n116 (* n62 n14)))
(declare-fun n117 () Int)
(assert (= n117 (* n63 n16)))
(declare-fun n118 () Int)
(assert (= n118 (* n62 n15)))
(declare-fun n119 () Int)
(assert (= n119 (* n63 n17)))
(declare-fun n120 () Int)
(assert (= n120 (+ n112 n113)))
(declare-fun n121 () Int)
(assert (= n121 (+ n114 n115)))
(declare-fun n122 () Int)
(assert (= n122 (+ n116 n117)))
(declare-fun n123 () Int)
(assert (= n123 (+ n118 n119)))
(declare-fun n124 () Int)
(assert (= n124 (* n2 n12)))
(declare-fun n125 () Int)
(assert (= n125 (* n3 n13)))
(declare-fun n126 () Int)
(assert (= n126 (* n4 n12)))
(declare-fun n127 () Int)
(assert (= n127 (* n5 n13)))
(declare-fun n128 () Int)
(assert (= n128 (+ n124 n125)))
(declare-fun n129 () Int)
(assert (= n129 (+ n126 n127)))
(declare-fun n130 () Int)
(assert (= n130 (+ n0 n128)))
(declare-fun n131 () Int)
(assert (= n131 (+ n1 n129)))
(declare-fun n132 () Int)
(assert (= n132 (* n2 n14)))
(declare-fun n133 () Int)
(assert (= n133 (* n3 n16)))
(declare-fun n134 () Int)
(assert (= n134 (* n2 n15)))
(declare-fun n135 () Int)
(assert (= n135 (* n3 n17)))
(declare-fun n136 () Int)
(assert (= n136 (* n4 n14)))
(declare-fun n137 () Int)
(assert (= n137 (* n5 n16)))
(declare-fun n138 () Int)
(assert (= n138 (* n4 n15)))
(declare-fun n139 () Int)
(assert (= n139 (* n5 n17)))
(declare-fun n140 () Int)
(assert (= n140 (+ n132 n133)))
(declare-fun n141 () Int)
(assert (= n141 (+ n134 n135)))
(declare-fun n142 () Int)
(assert (= n142 (+ n136 n137)))
(declare-fun n143 () Int)
(assert (= n143 (+ n138 n139)))
(assert (>= n130 n0))
(assert (>= n131 n1))
(assert (>= n140 n2))
(assert (>= n141 n3))
(assert (>= n142 n4))
(assert (>= n143 n5))
(declare-fun n144 () Int)
(assert (= n144 (* n20 n0)))
(declare-fun n145 () Int)
(assert (= n145 (* n21 n1)))
(declare-fun n146 () Int)
(assert (= n146 (* n22 n0)))
(declare-fun n147 () Int)
(assert (= n147 (* n23 n1)))
(declare-fun n148 () Int)
(assert (= n148 (+ n144 n145)))
(declare-fun n149 () Int)
(assert (= n149 (+ n146 n147)))
(declare-fun n150 () Int)
(assert (= n150 (+ n18 n148)))
(declare-fun n151 () Int)
(assert (= n151 (+ n19 n149)))
(declare-fun n152 () Int)
(assert (= n152 (* n20 n2)))
(declare-fun n153 () Int)
(assert (= n153 (* n21 n4)))
(declare-fun n154 () Int)
(assert (= n154 (* n20 n3)))
(declare-fun n155 () Int)
(assert (= n155 (* n21 n5)))
(declare-fun n156 () Int)
(assert (= n156 (* n22 n2)))
(declare-fun n157 () Int)
(assert (= n157 (* n23 n4)))
(declare-fun n158 () Int)
(assert (= n158 (* n22 n3)))
(declare-fun n159 () Int)
(assert (= n159 (* n23 n5)))
(declare-fun n160 () Int)
(assert (= n160 (+ n152 n153)))
(declare-fun n161 () Int)
(assert (= n161 (+ n154 n155)))
(declare-fun n162 () Int)
(assert (= n162 (+ n156 n157)))
(declare-fun n163 () Int)
(assert (= n163 (+ n158 n159)))
(declare-fun n164 () Int)
(assert (= n164 (* n120 n18)))
(declare-fun n165 () Int)
(assert (= n165 (* n121 n19)))
(declare-fun n166 () Int)
(assert (= n166 (* n122 n18)))
(declare-fun n167 () Int)
(assert (= n167 (* n123 n19)))
(declare-fun n168 () Int)
(assert (= n168 (+ n164 n165)))
(declare-fun n169 () Int)
(assert (= n169 (+ n166 n167)))
(declare-fun n170 () Int)
(assert (= n170 (+ n110 n168)))
(declare-fun n171 () Int)
(assert (= n171 (+ n111 n169)))
(declare-fun n172 () Int)
(assert (= n172 (* n120 n20)))
(declare-fun n173 () Int)
(assert (= n173 (* n121 n22)))
(declare-fun n174 () Int)
(assert (= n174 (* n120 n21)))
(declare-fun n175 () Int)
(assert (= n175 (* n121 n23)))
(declare-fun n176 () Int)
(assert (= n176 (* n122 n20)))
(declare-fun n177 () Int)
(assert (= n177 (* n123 n22)))
(declare-fun n178 () Int)
(assert (= n178 (* n122 n21)))
(declare-fun n179 () Int)
(assert (= n179 (* n123 n23)))
(declare-fun n180 () Int)
(assert (= n180 (+ n172 n173)))
(declare-fun n181 () Int)
(assert (= n181 (+ n174 n175)))
(declare-fun n182 () Int)
(assert (= n182 (+ n176 n177)))
(declare-fun n183 () Int)
(assert (= n183 (+ n178 n179)))
(assert (>= n150 n170))
(assert (>= n151 n171))
(assert (>= n160 n180))
(assert (>= n161 n181))
(assert (>= n162 n182))
(assert (>= n163 n183))
(declare-fun n184 () Int)
(assert (= n184 (* n100 n12)))
(declare-fun n185 () Int)
(assert (= n185 (* n101 n13)))
(declare-fun n186 () Int)
(assert (= n186 (* n102 n12)))
(declare-fun n187 () Int)
(assert (= n187 (* n103 n13)))
(declare-fun n188 () Int)
(assert (= n188 (+ n184 n185)))
(declare-fun n189 () Int)
(assert (= n189 (+ n186 n187)))
(declare-fun n190 () Int)
(assert (= n190 (+ n90 n188)))
(declare-fun n191 () Int)
(assert (= n191 (+ n91 n189)))
(declare-fun n192 () Int)
(assert (= n192 (* n100 n14)))
(declare-fun n193 () Int)
(assert (= n193 (* n101 n16)))
(declare-fun n194 () Int)
(assert (= n194 (* n100 n15)))
(declare-fun n195 () Int)
(assert (= n195 (* n101 n17)))
(declare-fun n196 () Int)
(assert (= n196 (* n102 n14)))
(declare-fun n197 () Int)
(assert (= n197 (* n103 n16)))
(declare-fun n198 () Int)
(assert (= n198 (* n102 n15)))
(declare-fun n199 () Int)
(assert (= n199 (* n103 n17)))
(declare-fun n200 () Int)
(assert (= n200 (+ n192 n193)))
(declare-fun n201 () Int)
(assert (= n201 (+ n194 n195)))
(declare-fun n202 () Int)
(assert (= n202 (+ n196 n197)))
(declare-fun n203 () Int)
(assert (= n203 (+ n198 n199)))
(assert (>= n110 n190))
(assert (>= n111 n191))
(assert (>= n120 n200))
(assert (>= n121 n201))
(assert (>= n122 n202))
(assert (>= n123 n203))
(declare-fun n204 () Int)
(assert (= n204 (* n80 n0)))
(declare-fun n205 () Int)
(assert (= n205 (* n81 n1)))
(declare-fun n206 () Int)
(assert (= n206 (* n82 n0)))
(declare-fun n207 () Int)
(assert (= n207 (* n83 n1)))
(declare-fun n208 () Int)
(assert (= n208 (+ n204 n205)))
(declare-fun n209 () Int)
(assert (= n209 (+ n206 n207)))
(declare-fun n210 () Int)
(assert (= n210 (+ n70 n208)))
(declare-fun n211 () Int)
(assert (= n211 (+ n71 n209)))
(declare-fun n212 () Int)
(assert (= n212 (* n80 n2)))
(declare-fun n213 () Int)
(assert (= n213 (* n81 n4)))
(declare-fun n214 () Int)
(assert (= n214 (* n80 n3)))
(declare-fun n215 () Int)
(assert (= n215 (* n81 n5)))
(declare-fun n216 () Int)
(assert (= n216 (* n82 n2)))
(declare-fun n217 () Int)
(assert (= n217 (* n83 n4)))
(declare-fun n218 () Int)
(assert (= n218 (* n82 n3)))
(declare-fun n219 () Int)
(assert (= n219 (* n83 n5)))
(declare-fun n220 () Int)
(assert (= n220 (+ n212 n213)))
(declare-fun n221 () Int)
(assert (= n221 (+ n214 n215)))
(declare-fun n222 () Int)
(assert (= n222 (+ n216 n217)))
(declare-fun n223 () Int)
(assert (= n223 (+ n218 n219)))
(assert (>= n12 n210))
(assert (>= n13 n211))
(assert (>= n14 n220))
(assert (>= n15 n221))
(assert (>= n16 n222))
(assert (>= n17 n223))
(assert (or (> n130 n0) (> n150 n170) (> n110 n190) (> n12 n210)))
(check-sat)
(exit)
